unsat
( c100
  c101
  c102
  c1025
  c103
  c104
  c105
  c106
  c107
  c108
  c109
  c110
  c111
  c112
  c113
  c114
  c1140
  c1143
  c115
  c116
  c117
  c118
  c119
  c120
  c121
  c122
  c1227
  c123
  c124
  c125
  c126
  c127
  c1333
  c1340
  c1348
  c1355
  c1358
  c1362
  c1405
  c144
  c145
  c146
  c147
  c148
  c149
  c150
  c151
  c152
  c153
  c1530
  c154
  c155
  c1552
  c156
  c157
  c158
  c159
  c160
  c161
  c162
  c163
  c1631
  c164
  c165
  c166
  c167
  c168
  c169
  c170
  c1705
  c171
  c172
  c173
  c1738
  c1739
  c174
  c1745
  c175
  c1785
  c1791
  c1800
  c1921
  c1981
  c1990
  c208
  c209
  c210
  c211
  c2119
  c212
  c213
  c214
  c215
  c216
  c217
  c218
  c219
  c220
  c221
  c222
  c223
  c2286
  c2290
  c2301
  c2312
  c2315
  c2470
  c2476
  c2509
  c2511
  c2515
  c2518
  c2523
  c2524
  c2527
  c2530
  c2548
  c2551
  c2557
  c256
  c2560
  c257
  c258
  c2581
  c259
  c260
  c261
  c262
  c263
  c264
  c265
  c266
  c2666
  c267
  c268
  c269
  c270
  c271
  c2747
  c2750
  c2771
  c2879
  c2882
  c2885
  c2904
  c2925
  c2961
  c3079
  c3094
  c3170
  c395
  c401
  c406
  c409
  c415
  c422
  c434
  c440
  c470
  c48
  c49
  c50
  c51
  c52
  c53
  c54
  c55
  c56
  c564
  c565
  c569
  c57
  c573
  c58
  c580
  c585
  c588
  c59
  c598
  c599
  c60
  c602
  c61
  c62
  c63
  c64
  c645
  c648
  c65
  c657
  c66
  c660
  c67
  c68
  c69
  c70
  c71
  c72
  c73
  c74
  c75
  c76
  c77
  c775
  c778
  c78
  c789
  c79
  c792
  c80
  c81
  c814
  c82
  c83
  c84
  c847
  c85
  c86
  c87
  c88
  c89
  c90
  c91
  c92
  c93
  c94
  c95
  c96
  c97
  c978
  c979
  c98
  c99 )
